nK = 1612;
nT = 6;
nI = 14;
L = 29;
TT = 380;
np = 1;
nc = 3;
b = [27, 50, 64, 48, 61, 41, 63, 69, 50, 30, 48, 65, 65, 28];
d = [106, 123, 102, 100, 138, 146, 112, 106, 98, 92, 86, 136, 124, 141];
m = [2.3, 1.6, 2, 2.4, 1.5, 1.5, 2.5, 1.1, 1.1, 1.2, 1.5, 1, 2, 1.2];
pt = [0.34, 0.23, 0.26, 0.23, 0.29, 0.27];
st = [18.36, 11.73, 13.26, 9.2, 13.05, 15.93];
arc = {<1, 0, 1, 1, 0, 0, 0, [1, 1, 1, 1, 1, 1]>, <2, 1, 2, 1, 0, 0, 0, [1, 1, 1, 1, 1, 1]>, <3, 2, 3, 1, 0, 0, 0, [1, 1, 1, 1, 1, 1]>, <4, 3, 4, 1, 0, 0, 0, [1, 1, 1, 1, 1, 1]>, <5, 4, 5, 1, 0, 0, 0, [1, 1, 1, 1, 1, 1]>, <6, 5, 6, 1, 0, 0, 0, [1, 1, 1, 1, 1, 1]>, <7, 6, 7, 1, 0, 0, 0, [1, 1, 1, 1, 1, 1]>, <8, 7, 8, 1, 0, 0, 0, [1, 1, 1, 1, 1, 1]>, <9, 8, 9, 1, 0, 0, 0, [1, 1, 1, 1, 1, 1]>, <10, 9, 10, 1, 0, 0, 0, [1, 1, 1, 1, 1, 1]>, <11, 10, 11, 1, 0, 0, 0, [1, 1, 1, 1, 1, 1]>, <12, 11, 12, 1, 0, 0, 0, [1, 1, 1, 1, 1, 1]>, <13, 12, 13, 1, 0, 0, 0, [1, 1, 1, 1, 1, 1]>, <14, 13, 14, 1, 0, 0, 0, [1, 1, 1, 1, 1, 1]>, <15, 14, 15, 1, 0, 0, 0, [1, 1, 1, 1, 1, 1]>, <16, 15, 16, 1, 0, 0, 0, [1, 1, 1, 1, 1, 1]>, <17, 16, 17, 1, 0, 0, 0, [1, 1, 1, 1, 1, 1]>, <18, 17, 18, 1, 0, 0, 0, [1, 1, 1, 1, 1, 1]>, <19, 18, 19, 1, 0, 0, 0, [1, 1, 1, 1, 1, 1]>, <20, 19, 20, 1, 0, 0, 0, [1, 1, 1, 1, 1, 1]>, <21, 20, 21, 1, 0, 0, 0, [1, 1, 1, 1, 1, 1]>, <22, 21, 22, 1, 0, 0, 0, [1, 1, 1, 1, 1, 1]>, <23, 22, 23, 1, 0, 0, 0, [1, 1, 1, 1, 1, 1]>, <24, 23, 24, 1, 0, 0, 0, [1, 1, 1, 1, 1, 1]>, <25, 24, 25, 1, 0, 0, 0, [1, 1, 1, 1, 1, 1]>, <26, 25, 26, 1, 0, 0, 0, [1, 1, 1, 1, 1, 1]>, <27, 26, 27, 1, 0, 0, 0, [1, 1, 1, 1, 1, 1]>, <28, 27, 28, 1, 0, 0, 0, [1, 1, 1, 1, 1, 1]>, <29, 28, 29, 1, 0, 0, 0, [1, 1, 1, 1, 1, 1]>, <30, 0, 15, 15, 1, 0, 0, [0, 0, 1, 1, 0, 0]>, <31, 1, 16, 15, 1, 0, 0, [0, 0, 1, 1, 0, 0]>, <32, 2, 17, 15, 1, 0, 0, [0, 0, 1, 1, 0, 0]>, <33, 3, 18, 15, 1, 0, 0, [0, 0, 1, 1, 0, 0]>, <34, 4, 19, 15, 1, 0, 0, [0, 0, 1, 1, 0, 0]>, <35, 5, 20, 15, 1, 0, 0, [0, 0, 1, 1, 0, 0]>, <36, 6, 21, 15, 1, 0, 0, [0, 0, 1, 1, 0, 0]>, <37, 7, 22, 15, 1, 0, 0, [0, 0, 1, 1, 0, 0]>, <38, 8, 23, 15, 1, 0, 0, [0, 0, 1, 1, 0, 0]>, <39, 9, 24, 15, 1, 0, 0, [0, 0, 1, 1, 0, 0]>, <40, 10, 25, 15, 1, 0, 0, [0, 0, 1, 1, 0, 0]>, <41, 11, 26, 15, 1, 0, 0, [0, 0, 1, 1, 0, 0]>, <42, 12, 27, 15, 1, 0, 0, [0, 0, 1, 1, 0, 0]>, <43, 13, 28, 15, 1, 0, 0, [0, 0, 1, 1, 0, 0]>, <44, 14, 29, 15, 1, 0, 0, [0, 0, 1, 1, 0, 0]>, <45, 0, 13, 13, 2, 0, 0, [1, 1, 0, 0, 0, 0]>, <46, 1, 14, 13, 2, 0, 0, [1, 1, 0, 0, 0, 0]>, <47, 2, 15, 13, 2, 0, 0, [1, 1, 0, 0, 0, 0]>, <48, 3, 16, 13, 2, 0, 0, [1, 1, 0, 0, 0, 0]>, <49, 4, 17, 13, 2, 0, 0, [1, 1, 0, 0, 0, 0]>, <50, 5, 18, 13, 2, 0, 0, [1, 1, 0, 0, 0, 0]>, <51, 7, 20, 13, 2, 0, 0, [1, 1, 0, 0, 0, 0]>, <52, 8, 21, 13, 2, 0, 0, [1, 1, 0, 0, 0, 0]>, <53, 9, 22, 13, 2, 0, 0, [1, 1, 0, 0, 0, 0]>, <54, 10, 23, 13, 2, 0, 0, [1, 1, 0, 0, 0, 0]>, <55, 11, 24, 13, 2, 0, 0, [1, 1, 0, 0, 0, 0]>, <56, 12, 25, 13, 2, 0, 0, [1, 1, 0, 0, 0, 0]>, <57, 13, 26, 13, 2, 0, 0, [1, 1, 0, 0, 0, 0]>, <58, 14, 27, 13, 2, 0, 0, [1, 1, 0, 0, 0, 0]>, <59, 15, 28, 13, 2, 0, 0, [1, 1, 0, 0, 0, 0]>, <60, 16, 29, 13, 2, 0, 0, [1, 1, 0, 0, 0, 0]>, <61, 0, 16, 16, 3, 0, 0, [0, 0, 1, 1, 0, 0]>, <62, 1, 17, 16, 3, 0, 0, [0, 0, 1, 1, 0, 0]>, <63, 2, 18, 16, 3, 0, 0, [0, 0, 1, 1, 0, 0]>, <64, 3, 19, 16, 3, 0, 0, [0, 0, 1, 1, 0, 0]>, <65, 4, 20, 16, 3, 0, 0, [0, 0, 1, 1, 0, 0]>, <66, 5, 21, 16, 3, 0, 0, [0, 0, 1, 1, 0, 0]>, <67, 6, 22, 16, 3, 0, 0, [0, 0, 1, 1, 0, 0]>, <68, 7, 23, 16, 3, 0, 0, [0, 0, 1, 1, 0, 0]>, <69, 8, 24, 16, 3, 0, 0, [0, 0, 1, 1, 0, 0]>, <70, 9, 25, 16, 3, 0, 0, [0, 0, 1, 1, 0, 0]>, <71, 10, 26, 16, 3, 0, 0, [0, 0, 1, 1, 0, 0]>, <72, 11, 27, 16, 3, 0, 0, [0, 0, 1, 1, 0, 0]>, <73, 12, 28, 16, 3, 0, 0, [0, 0, 1, 1, 0, 0]>, <74, 13, 29, 16, 3, 0, 0, [0, 0, 1, 1, 0, 0]>, <75, 0, 14, 14, 4, 0, 0, [0, 0, 1, 1, 0, 0]>, <76, 1, 15, 14, 4, 0, 0, [0, 0, 1, 1, 0, 0]>, <77, 2, 16, 14, 4, 0, 0, [0, 0, 1, 1, 0, 0]>, <78, 3, 17, 14, 4, 0, 0, [0, 0, 1, 1, 0, 0]>, <79, 4, 18, 14, 4, 0, 0, [0, 0, 1, 1, 0, 0]>, <80, 5, 19, 14, 4, 0, 0, [0, 0, 1, 1, 0, 0]>, <81, 6, 20, 14, 4, 0, 0, [0, 0, 1, 1, 0, 0]>, <82, 7, 21, 14, 4, 0, 0, [0, 0, 1, 1, 0, 0]>, <83, 8, 22, 14, 4, 0, 0, [0, 0, 1, 1, 0, 0]>, <84, 9, 23, 14, 4, 0, 0, [0, 0, 1, 1, 0, 0]>, <85, 10, 24, 14, 4, 0, 0, [0, 0, 1, 1, 0, 0]>, <86, 11, 25, 14, 4, 0, 0, [0, 0, 1, 1, 0, 0]>, <87, 12, 26, 14, 4, 0, 0, [0, 0, 1, 1, 0, 0]>, <88, 13, 27, 14, 4, 0, 0, [0, 0, 1, 1, 0, 0]>, <89, 14, 28, 14, 4, 0, 0, [0, 0, 1, 1, 0, 0]>, <90, 15, 29, 14, 4, 0, 0, [0, 0, 1, 1, 0, 0]>, <91, 0, 14, 14, 5, 0, 0, [1, 1, 0, 0, 0, 0]>, <92, 1, 15, 14, 5, 0, 0, [1, 1, 0, 0, 0, 0]>, <93, 2, 16, 14, 5, 0, 0, [1, 1, 0, 0, 0, 0]>, <94, 3, 17, 14, 5, 0, 0, [1, 1, 0, 0, 0, 0]>, <95, 4, 18, 14, 5, 0, 0, [1, 1, 0, 0, 0, 0]>, <96, 5, 19, 14, 5, 0, 0, [1, 1, 0, 0, 0, 0]>, <97, 6, 20, 14, 5, 0, 0, [1, 1, 0, 0, 0, 0]>, <98, 7, 21, 14, 5, 0, 0, [1, 1, 0, 0, 0, 0]>, <99, 8, 22, 14, 5, 0, 0, [1, 1, 0, 0, 0, 0]>, <100, 9, 23, 14, 5, 0, 0, [1, 1, 0, 0, 0, 0]>, <101, 10, 24, 14, 5, 0, 0, [1, 1, 0, 0, 0, 0]>, <102, 11, 25, 14, 5, 0, 0, [1, 1, 0, 0, 0, 0]>, <103, 12, 26, 14, 5, 0, 0, [1, 1, 0, 0, 0, 0]>, <104, 13, 27, 14, 5, 0, 0, [1, 1, 0, 0, 0, 0]>, <105, 14, 28, 14, 5, 0, 0, [1, 1, 0, 0, 0, 0]>, <106, 15, 29, 14, 5, 0, 0, [1, 1, 0, 0, 0, 0]>, <107, 0, 18, 18, 6, 0, 0, [0, 1, 1, 0, 0, 0]>, <108, 1, 19, 18, 6, 0, 0, [0, 1, 1, 0, 0, 0]>, <109, 2, 20, 18, 6, 0, 0, [0, 1, 1, 0, 0, 0]>, <110, 3, 21, 18, 6, 0, 0, [0, 1, 1, 0, 0, 0]>, <111, 4, 22, 18, 6, 0, 0, [0, 1, 1, 0, 0, 0]>, <112, 5, 23, 18, 6, 0, 0, [0, 1, 1, 0, 0, 0]>, <113, 6, 24, 18, 6, 0, 0, [0, 1, 1, 0, 0, 0]>, <114, 7, 25, 18, 6, 0, 0, [0, 1, 1, 0, 0, 0]>, <115, 8, 26, 18, 6, 0, 0, [0, 1, 1, 0, 0, 0]>, <116, 9, 27, 18, 6, 0, 0, [0, 1, 1, 0, 0, 0]>, <117, 10, 28, 18, 6, 0, 0, [0, 1, 1, 0, 0, 0]>, <118, 11, 29, 18, 6, 0, 0, [0, 1, 1, 0, 0, 0]>, <119, 0, 15, 15, 7, 0, 1, [0, 0, 0, 1, 1, 0]>, <120, 1, 16, 15, 7, 0, 1, [0, 0, 0, 1, 1, 0]>, <121, 2, 17, 15, 7, 0, 1, [0, 0, 0, 1, 1, 0]>, <122, 3, 18, 15, 7, 0, 1, [0, 0, 0, 1, 1, 0]>, <123, 4, 19, 15, 7, 0, 1, [0, 0, 0, 1, 1, 0]>, <124, 5, 20, 15, 7, 0, 1, [0, 0, 0, 1, 1, 0]>, <125, 6, 21, 15, 7, 0, 1, [0, 0, 0, 1, 1, 0]>, <126, 7, 22, 15, 7, 0, 1, [0, 0, 0, 1, 1, 0]>, <127, 8, 23, 15, 7, 0, 1, [0, 0, 0, 1, 1, 0]>, <128, 9, 24, 15, 7, 0, 1, [0, 0, 0, 1, 1, 0]>, <129, 10, 25, 15, 7, 0, 1, [0, 0, 0, 1, 1, 0]>, <130, 11, 26, 15, 7, 0, 1, [0, 0, 0, 1, 1, 0]>, <131, 12, 27, 15, 7, 0, 1, [0, 0, 0, 1, 1, 0]>, <132, 13, 28, 15, 7, 0, 1, [0, 0, 0, 1, 1, 0]>, <133, 14, 29, 15, 7, 0, 1, [0, 0, 0, 1, 1, 0]>, <134, 0, 17, 17, 8, 0, 1, [0, 0, 0, 0, 1, 1]>, <135, 1, 18, 17, 8, 0, 1, [0, 0, 0, 0, 1, 1]>, <136, 2, 19, 17, 8, 0, 1, [0, 0, 0, 0, 1, 1]>, <137, 3, 20, 17, 8, 0, 1, [0, 0, 0, 0, 1, 1]>, <138, 4, 21, 17, 8, 0, 1, [0, 0, 0, 0, 1, 1]>, <139, 5, 22, 17, 8, 0, 1, [0, 0, 0, 0, 1, 1]>, <140, 6, 23, 17, 8, 0, 1, [0, 0, 0, 0, 1, 1]>, <141, 7, 24, 17, 8, 0, 1, [0, 0, 0, 0, 1, 1]>, <142, 8, 25, 17, 8, 0, 1, [0, 0, 0, 0, 1, 1]>, <143, 9, 26, 17, 8, 0, 1, [0, 0, 0, 0, 1, 1]>, <144, 10, 27, 17, 8, 0, 1, [0, 0, 0, 0, 1, 1]>, <145, 11, 28, 17, 8, 0, 1, [0, 0, 0, 0, 1, 1]>, <146, 12, 29, 17, 8, 0, 1, [0, 0, 0, 0, 1, 1]>, <147, 0, 14, 14, 9, 0, 1, [1, 1, 0, 0, 0, 0]>, <148, 1, 15, 14, 9, 0, 1, [1, 1, 0, 0, 0, 0]>, <149, 2, 16, 14, 9, 0, 1, [1, 1, 0, 0, 0, 0]>, <150, 3, 17, 14, 9, 0, 1, [1, 1, 0, 0, 0, 0]>, <151, 4, 18, 14, 9, 0, 1, [1, 1, 0, 0, 0, 0]>, <152, 5, 19, 14, 9, 0, 1, [1, 1, 0, 0, 0, 0]>, <153, 6, 20, 14, 9, 0, 1, [1, 1, 0, 0, 0, 0]>, <154, 7, 21, 14, 9, 0, 1, [1, 1, 0, 0, 0, 0]>, <155, 8, 22, 14, 9, 0, 1, [1, 1, 0, 0, 0, 0]>, <156, 9, 23, 14, 9, 0, 1, [1, 1, 0, 0, 0, 0]>, <157, 10, 24, 14, 9, 0, 1, [1, 1, 0, 0, 0, 0]>, <158, 11, 25, 14, 9, 0, 1, [1, 1, 0, 0, 0, 0]>, <159, 12, 26, 14, 9, 0, 1, [1, 1, 0, 0, 0, 0]>, <160, 13, 27, 14, 9, 0, 1, [1, 1, 0, 0, 0, 0]>, <161, 14, 28, 14, 9, 0, 1, [1, 1, 0, 0, 0, 0]>, <162, 15, 29, 14, 9, 0, 1, [1, 1, 0, 0, 0, 0]>, <163, 0, 15, 15, 10, 0, 0, [0, 0, 0, 1, 1, 0]>, <164, 1, 16, 15, 10, 0, 0, [0, 0, 0, 1, 1, 0]>, <165, 2, 17, 15, 10, 0, 0, [0, 0, 0, 1, 1, 0]>, <166, 3, 18, 15, 10, 0, 0, [0, 0, 0, 1, 1, 0]>, <167, 4, 19, 15, 10, 0, 0, [0, 0, 0, 1, 1, 0]>, <168, 5, 20, 15, 10, 0, 0, [0, 0, 0, 1, 1, 0]>, <169, 6, 21, 15, 10, 0, 0, [0, 0, 0, 1, 1, 0]>, <170, 7, 22, 15, 10, 0, 0, [0, 0, 0, 1, 1, 0]>, <171, 8, 23, 15, 10, 0, 0, [0, 0, 0, 1, 1, 0]>, <172, 9, 24, 15, 10, 0, 0, [0, 0, 0, 1, 1, 0]>, <173, 10, 25, 15, 10, 0, 0, [0, 0, 0, 1, 1, 0]>, <174, 11, 26, 15, 10, 0, 0, [0, 0, 0, 1, 1, 0]>, <175, 12, 27, 15, 10, 0, 0, [0, 0, 0, 1, 1, 0]>, <176, 13, 28, 15, 10, 0, 0, [0, 0, 0, 1, 1, 0]>, <177, 14, 29, 15, 10, 0, 0, [0, 0, 0, 1, 1, 0]>, <178, 0, 18, 18, 11, 0, 0, [0, 0, 0, 0, 1, 1]>, <179, 1, 19, 18, 11, 0, 0, [0, 0, 0, 0, 1, 1]>, <180, 2, 20, 18, 11, 0, 0, [0, 0, 0, 0, 1, 1]>, <181, 3, 21, 18, 11, 0, 0, [0, 0, 0, 0, 1, 1]>, <182, 4, 22, 18, 11, 0, 0, [0, 0, 0, 0, 1, 1]>, <183, 5, 23, 18, 11, 0, 0, [0, 0, 0, 0, 1, 1]>, <184, 6, 24, 18, 11, 0, 0, [0, 0, 0, 0, 1, 1]>, <185, 7, 25, 18, 11, 0, 0, [0, 0, 0, 0, 1, 1]>, <186, 8, 26, 18, 11, 0, 0, [0, 0, 0, 0, 1, 1]>, <187, 9, 27, 18, 11, 0, 0, [0, 0, 0, 0, 1, 1]>, <188, 10, 28, 18, 11, 0, 0, [0, 0, 0, 0, 1, 1]>, <189, 11, 29, 18, 11, 0, 0, [0, 0, 0, 0, 1, 1]>, <190, 0, 14, 14, 12, 1, 0, [0, 0, 0, 0, 1, 1]>, <191, 1, 15, 14, 12, 1, 0, [0, 0, 0, 0, 1, 1]>, <192, 2, 16, 14, 12, 1, 0, [0, 0, 0, 0, 1, 1]>, <193, 3, 17, 14, 12, 1, 0, [0, 0, 0, 0, 1, 1]>, <194, 4, 18, 14, 12, 1, 0, [0, 0, 0, 0, 1, 1]>, <195, 5, 19, 14, 12, 1, 0, [0, 0, 0, 0, 1, 1]>, <196, 6, 20, 14, 12, 1, 0, [0, 0, 0, 0, 1, 1]>, <197, 7, 21, 14, 12, 1, 0, [0, 0, 0, 0, 1, 1]>, <198, 8, 22, 14, 12, 1, 0, [0, 0, 0, 0, 1, 1]>, <199, 9, 23, 14, 12, 1, 0, [0, 0, 0, 0, 1, 1]>, <200, 10, 24, 14, 12, 1, 0, [0, 0, 0, 0, 1, 1]>, <201, 11, 25, 14, 12, 1, 0, [0, 0, 0, 0, 1, 1]>, <202, 12, 26, 14, 12, 1, 0, [0, 0, 0, 0, 1, 1]>, <203, 13, 27, 14, 12, 1, 0, [0, 0, 0, 0, 1, 1]>, <204, 14, 28, 14, 12, 1, 0, [0, 0, 0, 0, 1, 1]>, <205, 15, 29, 14, 12, 1, 0, [0, 0, 0, 0, 1, 1]>, <206, 0, 14, 14, 13, 1, 0, [0, 0, 0, 1, 1, 0]>, <207, 1, 15, 14, 13, 1, 0, [0, 0, 0, 1, 1, 0]>, <208, 2, 16, 14, 13, 1, 0, [0, 0, 0, 1, 1, 0]>, <209, 3, 17, 14, 13, 1, 0, [0, 0, 0, 1, 1, 0]>, <210, 4, 18, 14, 13, 1, 0, [0, 0, 0, 1, 1, 0]>, <211, 5, 19, 14, 13, 1, 0, [0, 0, 0, 1, 1, 0]>, <212, 6, 20, 14, 13, 1, 0, [0, 0, 0, 1, 1, 0]>, <213, 7, 21, 14, 13, 1, 0, [0, 0, 0, 1, 1, 0]>, <214, 8, 22, 14, 13, 1, 0, [0, 0, 0, 1, 1, 0]>, <215, 9, 23, 14, 13, 1, 0, [0, 0, 0, 1, 1, 0]>, <216, 10, 24, 14, 13, 1, 0, [0, 0, 0, 1, 1, 0]>, <217, 11, 25, 14, 13, 1, 0, [0, 0, 0, 1, 1, 0]>, <218, 12, 26, 14, 13, 1, 0, [0, 0, 0, 1, 1, 0]>, <219, 13, 27, 14, 13, 1, 0, [0, 0, 0, 1, 1, 0]>, <220, 14, 28, 14, 13, 1, 0, [0, 0, 0, 1, 1, 0]>, <221, 15, 29, 14, 13, 1, 0, [0, 0, 0, 1, 1, 0]>, <222, 0, 16, 16, 14, 0, 1, [0, 1, 1, 0, 0, 0]>, <223, 1, 17, 16, 14, 0, 1, [0, 1, 1, 0, 0, 0]>, <224, 2, 18, 16, 14, 0, 1, [0, 1, 1, 0, 0, 0]>, <225, 3, 19, 16, 14, 0, 1, [0, 1, 1, 0, 0, 0]>, <226, 4, 20, 16, 14, 0, 1, [0, 1, 1, 0, 0, 0]>, <227, 5, 21, 16, 14, 0, 1, [0, 1, 1, 0, 0, 0]>, <228, 6, 22, 16, 14, 0, 1, [0, 1, 1, 0, 0, 0]>, <229, 7, 23, 16, 14, 0, 1, [0, 1, 1, 0, 0, 0]>, <230, 8, 24, 16, 14, 0, 1, [0, 1, 1, 0, 0, 0]>, <231, 9, 25, 16, 14, 0, 1, [0, 1, 1, 0, 0, 0]>, <232, 10, 26, 16, 14, 0, 1, [0, 1, 1, 0, 0, 0]>, <233, 11, 27, 16, 14, 0, 1, [0, 1, 1, 0, 0, 0]>, <234, 12, 28, 16, 14, 0, 1, [0, 1, 1, 0, 0, 0]>, <235, 13, 29, 16, 14, 0, 1, [0, 1, 1, 0, 0, 0]>};
